NAME: template5.png
TYPE: TSP
DIMENSION: 200
EDGE_WEIGHT_TYPE: EUC_2D
NODE_COORD_SECTION
1 532.5 531.0
2 594.5 531.0
3 719.5 531.0
4 781.5 531.0
5 1902.5 531.0
6 2027.5 531.0
7 2089.5 531.0
8 657.5 532.0
9 1965.5 532.0
10 2151.5 532.0
11 532.5 593.0
12 719.5 593.0
13 781.5 593.0
14 1840.5 593.0
15 2027.5 593.0
16 2089.5 593.0
17 2276.5 593.0
18 407.5 594.0
19 470.5 594.0
20 594.5 594.0
21 657.5 594.0
22 843.5 594.0
23 1902.5 594.0
24 1965.5 594.0
25 2151.5 594.0
26 2214.5 594.0
27 283.5 656.0
28 345.5 656.0
29 407.5 656.0
30 532.5 656.0
31 594.5 656.0
32 657.5 656.0
33 719.5 656.0
34 781.5 656.0
35 843.5 656.0
36 906.5 656.0
37 1778.5 656.0
38 1840.5 656.0
39 1902.5 656.0
40 1965.5 656.0
41 2027.5 656.0
42 2089.5 656.0
43 2151.5 656.0
44 2276.5 656.0
45 2338.5 656.0
46 2401.5 656.0
47 158.5 718.0
48 283.5 718.0
49 345.5 718.0
50 594.5 718.0
51 719.5 718.0
52 781.5 718.0
53 906.5 718.0
54 968.5 718.0
55 1030.5 718.0
56 1653.5 718.0
57 1778.5 718.0
58 1840.5 718.0
59 1902.5 718.0
60 2027.5 718.0
61 2089.5 718.0
62 2338.5 718.0
63 2463.5 718.0
64 2525.5 718.0
65 221.5 719.0
66 657.5 719.0
67 843.5 719.0
68 1715.5 719.0
69 1965.5 719.0
70 2401.5 719.0
71 96.5 780.0
72 158.5 780.0
73 283.5 780.0
74 345.5 780.0
75 532.5 780.0
76 594.5 780.0
77 719.5 780.0
78 781.5 780.0
79 968.5 780.0
80 1030.5 780.0
81 1155.5 780.0
82 1217.5 780.0
83 1342.5 780.0
84 1404.5 780.0
85 1466.5 780.0
86 1591.5 780.0
87 1653.5 780.0
88 1840.5 780.0
89 1902.5 780.0
90 2027.5 780.0
91 2089.5 780.0
92 2276.5 780.0
93 2338.5 780.0
94 2463.5 780.0
95 2525.5 780.0
96 221.5 781.0
97 407.5 781.0
98 657.5 781.0
99 843.5 781.0
100 1093.5 781.0
101 1279.5 781.0
102 1529.5 781.0
103 1715.5 781.0
104 1965.5 781.0
105 2151.5 781.0
106 2401.5 781.0
107 2587.5 781.0
108 283.5 842.0
109 345.5 842.0
110 532.5 842.0
111 719.5 842.0
112 781.5 842.0
113 1155.5 842.0
114 1217.5 842.0
115 1404.5 842.0
116 1591.5 842.0
117 1653.5 842.0
118 2027.5 842.0
119 2089.5 842.0
120 2276.5 842.0
121 407.5 843.0
122 470.5 843.0
123 594.5 843.0
124 657.5 843.0
125 1030.5 843.0
126 1093.5 843.0
127 1279.5 843.0
128 1342.5 843.0
129 1466.5 843.0
130 1529.5 843.0
131 1902.5 843.0
132 1965.5 843.0
133 2151.5 843.0
134 2214.5 843.0
135 2338.5 843.0
136 2401.5 843.0
137 470.5 905.0
138 532.5 905.0
139 594.5 905.0
140 657.5 905.0
141 719.5 905.0
142 781.5 905.0
143 843.5 905.0
144 968.5 905.0
145 1030.5 905.0
146 1093.5 905.0
147 1155.5 905.0
148 1217.5 905.0
149 1279.5 905.0
150 1404.5 905.0
151 1466.5 905.0
152 1529.5 905.0
153 1591.5 905.0
154 1653.5 905.0
155 1715.5 905.0
156 1840.5 905.0
157 1902.5 905.0
158 1965.5 905.0
159 2027.5 905.0
160 2089.5 905.0
161 2151.5 905.0
162 2214.5 905.0
163 719.5 967.0
164 781.5 967.0
165 906.5 967.0
166 968.5 967.0
167 1030.5 967.0
168 1155.5 967.0
169 1217.5 967.0
170 1466.5 967.0
171 1591.5 967.0
172 1653.5 967.0
173 1778.5 967.0
174 1840.5 967.0
175 1902.5 967.0
176 2027.5 967.0
177 657.5 968.0
178 843.5 968.0
179 1093.5 968.0
180 1529.5 968.0
181 1715.5 968.0
182 1965.5 968.0
183 968.5 1029.0
184 1030.5 1029.0
185 1155.5 1029.0
186 1217.5 1029.0
187 1404.5 1029.0
188 1591.5 1029.0
189 1653.5 1029.0
190 1093.5 1030.0
191 1279.5 1030.0
192 1466.5 1030.0
193 1529.5 1030.0
194 1715.5 1030.0
195 1155.5 1092.0
196 1217.5 1092.0
197 1279.5 1092.0
198 1342.5 1092.0
199 1404.5 1092.0
200 1466.5 1092.0
EOF
